NAME CFLP
ROWS
 N  OBJ
 E  demand_1
 E  demand_2
 E  demand_3
 E  demand_4
 E  demand_5
 E  demand_6
 E  demand_7
 E  demand_8
 E  demand_9
 E  demand_10
 E  demand_11
 E  demand_12
 E  demand_13
 E  demand_14
 E  demand_15
 E  demand_16
 E  demand_17
 E  demand_18
 E  demand_19
 E  demand_20
 E  demand_21
 E  demand_22
 E  demand_23
 E  demand_24
 E  demand_25
 E  demand_26
 E  demand_27
 E  demand_28
 E  demand_29
 E  demand_30
 L  c_disjunction_1_diajunct_1
 L  c_disjunction_1_disjunct_2
 E  R32     
 L  c_disjunction_2_diajunct_1
 L  c_disjunction_2_disjunct_2
 E  R35     
 L  c_disjunction_3_diajunct_1
 L  c_disjunction_3_disjunct_2
 E  R38     
 L  c_disjunction_4_diajunct_1
 L  c_disjunction_4_disjunct_2
 E  R41     
 L  c_disjunction_5_diajunct_1
 L  c_disjunction_5_disjunct_2
 E  R44     
 L  c_disjunction_6_diajunct_1
 L  c_disjunction_6_disjunct_2
 E  R47     
 L  c_disjunction_7_diajunct_1
 L  c_disjunction_7_disjunct_2
 E  R50     
 L  c_disjunction_8_diajunct_1
 L  c_disjunction_8_disjunct_2
 E  R53     
 L  c_disjunction_9_diajunct_1
 L  c_disjunction_9_disjunct_2
 E  R56     
 L  c_disjunction_10_diajunct_1
 L  c_disjunction_10_disjunct_2
 E  R59     
 L  c_disjunction_11_diajunct_1
 L  c_disjunction_11_disjunct_2
 E  R62     
 L  c_disjunction_12_diajunct_1
 L  c_disjunction_12_disjunct_2
 E  R65     
 L  c_disjunction_13_diajunct_1
 L  c_disjunction_13_disjunct_2
 E  R68     
 L  c_disjunction_14_diajunct_1
 L  c_disjunction_14_disjunct_2
 E  R71     
 L  c_disjunction_15_diajunct_1
 L  c_disjunction_15_disjunct_2
 E  R74     
 L  c_disjunction_16_diajunct_1
 L  c_disjunction_16_disjunct_2
 E  R77     
 L  c_disjunction_17_diajunct_1
 L  c_disjunction_17_disjunct_2
 E  R80     
 L  c_disjunction_18_diajunct_1
 L  c_disjunction_18_disjunct_2
 E  R83     
 L  c_disjunction_19_diajunct_1
 L  c_disjunction_19_disjunct_2
 E  R86     
 L  c_disjunction_20_diajunct_1
 L  c_disjunction_20_disjunct_2
 E  R89     
 L  c_disjunction_21_diajunct_1
 L  c_disjunction_21_disjunct_2
 E  R92     
 L  c_disjunction_22_diajunct_1
 L  c_disjunction_22_disjunct_2
 E  R95     
 L  c_disjunction_23_diajunct_1
 L  c_disjunction_23_disjunct_2
 E  R98     
 L  c_disjunction_24_diajunct_1
 L  c_disjunction_24_disjunct_2
 E  R101    
 L  c_disjunction_25_diajunct_1
 L  c_disjunction_25_disjunct_2
 E  R104    
 L  c_disjunction_26_diajunct_1
 L  c_disjunction_26_disjunct_2
 E  R107    
 L  c_disjunction_27_diajunct_1
 L  c_disjunction_27_disjunct_2
 E  R110    
 L  c_disjunction_28_diajunct_1
 L  c_disjunction_28_disjunct_2
 E  R113    
 L  c_disjunction_29_diajunct_1
 L  c_disjunction_29_disjunct_2
 E  R116    
 L  c_disjunction_30_diajunct_1
 L  c_disjunction_30_disjunct_2
 E  R119    
COLUMNS
    MARKER    'MARKER'                 'INTORG'
    ind_disjunction_1_disjunct_1  OBJ       1163
    ind_disjunction_1_disjunct_1  c_disjunction_1_diajunct_1  -113
    ind_disjunction_1_disjunct_1  R32       1
    ind_disjunction_2_disjunct_1  OBJ       1163
    ind_disjunction_2_disjunct_1  c_disjunction_2_diajunct_1  -113
    ind_disjunction_2_disjunct_1  R35       1
    ind_disjunction_3_disjunct_1  OBJ       1163
    ind_disjunction_3_disjunct_1  c_disjunction_3_diajunct_1  -113
    ind_disjunction_3_disjunct_1  R38       1
    ind_disjunction_4_disjunct_1  OBJ       1163
    ind_disjunction_4_disjunct_1  c_disjunction_4_diajunct_1  -113
    ind_disjunction_4_disjunct_1  R41       1
    ind_disjunction_5_disjunct_1  OBJ       1163
    ind_disjunction_5_disjunct_1  c_disjunction_5_diajunct_1  -113
    ind_disjunction_5_disjunct_1  R44       1
    ind_disjunction_6_disjunct_1  OBJ       1163
    ind_disjunction_6_disjunct_1  c_disjunction_6_diajunct_1  -113
    ind_disjunction_6_disjunct_1  R47       1
    ind_disjunction_7_disjunct_1  OBJ       1163
    ind_disjunction_7_disjunct_1  c_disjunction_7_diajunct_1  -113
    ind_disjunction_7_disjunct_1  R50       1
    ind_disjunction_8_disjunct_1  OBJ       1163
    ind_disjunction_8_disjunct_1  c_disjunction_8_diajunct_1  -113
    ind_disjunction_8_disjunct_1  R53       1
    ind_disjunction_9_disjunct_1  OBJ       1163
    ind_disjunction_9_disjunct_1  c_disjunction_9_diajunct_1  -113
    ind_disjunction_9_disjunct_1  R56       1
    ind_disjunction_10_disjunct_1  OBJ       1163
    ind_disjunction_10_disjunct_1  c_disjunction_10_diajunct_1  -113
    ind_disjunction_10_disjunct_1  R59       1
    ind_disjunction_11_disjunct_1  OBJ       1163
    ind_disjunction_11_disjunct_1  c_disjunction_11_diajunct_1  -113
    ind_disjunction_11_disjunct_1  R62       1
    ind_disjunction_12_disjunct_1  OBJ       1163
    ind_disjunction_12_disjunct_1  c_disjunction_12_diajunct_1  -113
    ind_disjunction_12_disjunct_1  R65       1
    ind_disjunction_13_disjunct_1  OBJ       1163
    ind_disjunction_13_disjunct_1  c_disjunction_13_diajunct_1  -113
    ind_disjunction_13_disjunct_1  R68       1
    ind_disjunction_14_disjunct_1  OBJ       1163
    ind_disjunction_14_disjunct_1  c_disjunction_14_diajunct_1  -113
    ind_disjunction_14_disjunct_1  R71       1
    ind_disjunction_15_disjunct_1  OBJ       1163
    ind_disjunction_15_disjunct_1  c_disjunction_15_diajunct_1  -113
    ind_disjunction_15_disjunct_1  R74       1
    ind_disjunction_16_disjunct_1  OBJ       1163
    ind_disjunction_16_disjunct_1  c_disjunction_16_diajunct_1  -113
    ind_disjunction_16_disjunct_1  R77       1
    ind_disjunction_17_disjunct_1  OBJ       1163
    ind_disjunction_17_disjunct_1  c_disjunction_17_diajunct_1  -113
    ind_disjunction_17_disjunct_1  R80       1
    ind_disjunction_18_disjunct_1  OBJ       1163
    ind_disjunction_18_disjunct_1  c_disjunction_18_diajunct_1  -113
    ind_disjunction_18_disjunct_1  R83       1
    ind_disjunction_19_disjunct_1  OBJ       1163
    ind_disjunction_19_disjunct_1  c_disjunction_19_diajunct_1  -113
    ind_disjunction_19_disjunct_1  R86       1
    ind_disjunction_20_disjunct_1  OBJ       1163
    ind_disjunction_20_disjunct_1  c_disjunction_20_diajunct_1  -113
    ind_disjunction_20_disjunct_1  R89       1
    ind_disjunction_21_disjunct_1  OBJ       1163
    ind_disjunction_21_disjunct_1  c_disjunction_21_diajunct_1  -113
    ind_disjunction_21_disjunct_1  R92       1
    ind_disjunction_22_disjunct_1  OBJ       1163
    ind_disjunction_22_disjunct_1  c_disjunction_22_diajunct_1  -113
    ind_disjunction_22_disjunct_1  R95       1
    ind_disjunction_23_disjunct_1  OBJ       1163
    ind_disjunction_23_disjunct_1  c_disjunction_23_diajunct_1  -113
    ind_disjunction_23_disjunct_1  R98       1
    ind_disjunction_24_disjunct_1  OBJ       1163
    ind_disjunction_24_disjunct_1  c_disjunction_24_diajunct_1  -113
    ind_disjunction_24_disjunct_1  R101      1
    ind_disjunction_25_disjunct_1  OBJ       1163
    ind_disjunction_25_disjunct_1  c_disjunction_25_diajunct_1  -113
    ind_disjunction_25_disjunct_1  R104      1
    ind_disjunction_26_disjunct_1  OBJ       1163
    ind_disjunction_26_disjunct_1  c_disjunction_26_diajunct_1  -113
    ind_disjunction_26_disjunct_1  R107      1
    ind_disjunction_27_disjunct_1  OBJ       1163
    ind_disjunction_27_disjunct_1  c_disjunction_27_diajunct_1  -113
    ind_disjunction_27_disjunct_1  R110      1
    ind_disjunction_28_disjunct_1  OBJ       1163
    ind_disjunction_28_disjunct_1  c_disjunction_28_diajunct_1  -113
    ind_disjunction_28_disjunct_1  R113      1
    ind_disjunction_29_disjunct_1  OBJ       1163
    ind_disjunction_29_disjunct_1  c_disjunction_29_diajunct_1  -113
    ind_disjunction_29_disjunct_1  R116      1
    ind_disjunction_30_disjunct_1  OBJ       1163
    ind_disjunction_30_disjunct_1  c_disjunction_30_diajunct_1  -113
    ind_disjunction_30_disjunct_1  R119      1
    ind_disjunction_1_disjunct_2  c_disjunction_1_disjunct_2  2
    ind_disjunction_1_disjunct_2  R32       1
    ind_disjunction_2_disjunct_2  c_disjunction_2_disjunct_2  4
    ind_disjunction_2_disjunct_2  R35       1
    ind_disjunction_3_disjunct_2  c_disjunction_3_disjunct_2  2
    ind_disjunction_3_disjunct_2  R38       1
    ind_disjunction_4_disjunct_2  c_disjunction_4_disjunct_2  2
    ind_disjunction_4_disjunct_2  R41       1
    ind_disjunction_5_disjunct_2  c_disjunction_5_disjunct_2  2
    ind_disjunction_5_disjunct_2  R44       1
    ind_disjunction_6_disjunct_2  c_disjunction_6_disjunct_2  6
    ind_disjunction_6_disjunct_2  R47       1
    ind_disjunction_7_disjunct_2  c_disjunction_7_disjunct_2  2
    ind_disjunction_7_disjunct_2  R50       1
    ind_disjunction_8_disjunct_2  c_disjunction_8_disjunct_2  1
    ind_disjunction_8_disjunct_2  R53       1
    ind_disjunction_9_disjunct_2  c_disjunction_9_disjunct_2  2
    ind_disjunction_9_disjunct_2  R56       1
    ind_disjunction_10_disjunct_2  c_disjunction_10_disjunct_2  6
    ind_disjunction_10_disjunct_2  R59       1
    ind_disjunction_11_disjunct_2  c_disjunction_11_disjunct_2  3
    ind_disjunction_11_disjunct_2  R62       1
    ind_disjunction_12_disjunct_2  c_disjunction_12_disjunct_2  3
    ind_disjunction_12_disjunct_2  R65       1
    ind_disjunction_13_disjunct_2  c_disjunction_13_disjunct_2  3
    ind_disjunction_13_disjunct_2  R68       1
    ind_disjunction_14_disjunct_2  c_disjunction_14_disjunct_2  5
    ind_disjunction_14_disjunct_2  R71       1
    ind_disjunction_15_disjunct_2  c_disjunction_15_disjunct_2  2
    ind_disjunction_15_disjunct_2  R74       1
    ind_disjunction_16_disjunct_2  c_disjunction_16_disjunct_2  2
    ind_disjunction_16_disjunct_2  R77       1
    ind_disjunction_17_disjunct_2  c_disjunction_17_disjunct_2  3
    ind_disjunction_17_disjunct_2  R80       1
    ind_disjunction_18_disjunct_2  c_disjunction_18_disjunct_2  4
    ind_disjunction_18_disjunct_2  R83       1
    ind_disjunction_19_disjunct_2  c_disjunction_19_disjunct_2  4
    ind_disjunction_19_disjunct_2  R86       1
    ind_disjunction_20_disjunct_2  c_disjunction_20_disjunct_2  3
    ind_disjunction_20_disjunct_2  R89       1
    ind_disjunction_21_disjunct_2  c_disjunction_21_disjunct_2  2
    ind_disjunction_21_disjunct_2  R92       1
    ind_disjunction_22_disjunct_2  c_disjunction_22_disjunct_2  4
    ind_disjunction_22_disjunct_2  R95       1
    ind_disjunction_23_disjunct_2  c_disjunction_23_disjunct_2  3
    ind_disjunction_23_disjunct_2  R98       1
    ind_disjunction_24_disjunct_2  c_disjunction_24_disjunct_2  2
    ind_disjunction_24_disjunct_2  R101      1
    ind_disjunction_25_disjunct_2  c_disjunction_25_disjunct_2  2
    ind_disjunction_25_disjunct_2  R104      1
    ind_disjunction_26_disjunct_2  c_disjunction_26_disjunct_2  2
    ind_disjunction_26_disjunct_2  R107      1
    ind_disjunction_27_disjunct_2  c_disjunction_27_disjunct_2  3
    ind_disjunction_27_disjunct_2  R110      1
    ind_disjunction_28_disjunct_2  c_disjunction_28_disjunct_2  4
    ind_disjunction_28_disjunct_2  R113      1
    ind_disjunction_29_disjunct_2  c_disjunction_29_disjunct_2  3
    ind_disjunction_29_disjunct_2  R116      1
    ind_disjunction_30_disjunct_2  c_disjunction_30_disjunct_2  4
    ind_disjunction_30_disjunct_2  R119      1
    x[1,1]    demand_1  1
    x[1,1]    c_disjunction_1_diajunct_1  27
    x[1,1]    c_disjunction_1_disjunct_2  1
    x[24,1]   OBJ       10.2
    x[24,1]   demand_1  1
    x[24,1]   c_disjunction_24_diajunct_1  27
    x[24,1]   c_disjunction_24_disjunct_2  1
    x[10,1]   OBJ       35.7
    x[10,1]   demand_1  1
    x[10,1]   c_disjunction_10_diajunct_1  27
    x[10,1]   c_disjunction_10_disjunct_2  1
    x[2,2]    demand_2  1
    x[2,2]    c_disjunction_2_diajunct_1  13
    x[2,2]    c_disjunction_2_disjunct_2  1
    x[19,2]   OBJ       14.1
    x[19,2]   demand_2  1
    x[19,2]   c_disjunction_19_diajunct_1  13
    x[19,2]   c_disjunction_19_disjunct_2  1
    x[27,2]   OBJ       14.5
    x[27,2]   demand_2  1
    x[27,2]   c_disjunction_27_diajunct_1  13
    x[27,2]   c_disjunction_27_disjunct_2  1
    x[3,3]    demand_3  1
    x[3,3]    c_disjunction_3_diajunct_1  21
    x[3,3]    c_disjunction_3_disjunct_2  1
    x[25,3]   OBJ       28.4
    x[25,3]   demand_3  1
    x[25,3]   c_disjunction_25_diajunct_1  21
    x[25,3]   c_disjunction_25_disjunct_2  1
    x[15,3]   OBJ       49.9
    x[15,3]   demand_3  1
    x[15,3]   c_disjunction_15_diajunct_1  21
    x[15,3]   c_disjunction_15_disjunct_2  1
    x[4,4]    demand_4  1
    x[4,4]    c_disjunction_4_diajunct_1  29
    x[4,4]    c_disjunction_4_disjunct_2  1
    x[12,4]   OBJ       35.4
    x[12,4]   demand_4  1
    x[12,4]   c_disjunction_12_diajunct_1  29
    x[12,4]   c_disjunction_12_disjunct_2  1
    x[6,4]    OBJ       45.9
    x[6,4]    demand_4  1
    x[6,4]    c_disjunction_6_diajunct_1  29
    x[6,4]    c_disjunction_6_disjunct_2  1
    x[5,5]    demand_5  1
    x[5,5]    c_disjunction_5_diajunct_1  28
    x[5,5]    c_disjunction_5_disjunct_2  1
    x[12,5]   OBJ       33.1
    x[12,5]   demand_5  1
    x[12,5]   c_disjunction_12_diajunct_1  28
    x[12,5]   c_disjunction_12_disjunct_2  1
    x[14,5]   OBJ       61.2
    x[14,5]   demand_5  1
    x[14,5]   c_disjunction_14_diajunct_1  28
    x[14,5]   c_disjunction_14_disjunct_2  1
    x[6,6]    demand_6  1
    x[6,6]    c_disjunction_6_diajunct_1  26
    x[6,6]    c_disjunction_6_disjunct_2  1
    x[28,6]   OBJ       5.4
    x[28,6]   demand_6  1
    x[28,6]   c_disjunction_28_diajunct_1  26
    x[28,6]   c_disjunction_28_disjunct_2  1
    x[14,6]   OBJ       15.9
    x[14,6]   demand_6  1
    x[14,6]   c_disjunction_14_diajunct_1  26
    x[14,6]   c_disjunction_14_disjunct_2  1
    x[7,7]    demand_7  1
    x[7,7]    c_disjunction_7_diajunct_1  24
    x[7,7]    c_disjunction_7_disjunct_2  1
    x[18,7]   OBJ       30
    x[18,7]   demand_7  1
    x[18,7]   c_disjunction_18_diajunct_1  24
    x[18,7]   c_disjunction_18_disjunct_2  1
    x[13,7]   OBJ       39.8
    x[13,7]   demand_7  1
    x[13,7]   c_disjunction_13_diajunct_1  24
    x[13,7]   c_disjunction_13_disjunct_2  1
    x[8,8]    demand_8  1
    x[8,8]    c_disjunction_8_diajunct_1  23
    x[8,8]    c_disjunction_8_disjunct_2  1
    x[19,8]   OBJ       88.6
    x[19,8]   demand_8  1
    x[19,8]   c_disjunction_19_diajunct_1  23
    x[19,8]   c_disjunction_19_disjunct_2  1
    x[26,8]   OBJ       93.4
    x[26,8]   demand_8  1
    x[26,8]   c_disjunction_26_diajunct_1  23
    x[26,8]   c_disjunction_26_disjunct_2  1
    x[9,9]    demand_9  1
    x[9,9]    c_disjunction_9_diajunct_1  12
    x[9,9]    c_disjunction_9_disjunct_2  1
    x[11,9]   OBJ       13.4
    x[11,9]   demand_9  1
    x[11,9]   c_disjunction_11_diajunct_1  12
    x[11,9]   c_disjunction_11_disjunct_2  1
    x[10,9]   OBJ       15.8
    x[10,9]   demand_9  1
    x[10,9]   c_disjunction_10_diajunct_1  12
    x[10,9]   c_disjunction_10_disjunct_2  1
    x[10,10]  demand_10  1
    x[10,10]  c_disjunction_10_diajunct_1  11
    x[10,10]  c_disjunction_10_disjunct_2  1
    x[23,10]  OBJ       3.4
    x[23,10]  demand_10  1
    x[23,10]  c_disjunction_23_diajunct_1  11
    x[23,10]  c_disjunction_23_disjunct_2  1
    x[29,10]  OBJ       8.9
    x[29,10]  demand_10  1
    x[29,10]  c_disjunction_29_diajunct_1  11
    x[29,10]  c_disjunction_29_disjunct_2  1
    x[11,11]  demand_11  1
    x[11,11]  c_disjunction_11_diajunct_1  16
    x[11,11]  c_disjunction_11_disjunct_2  1
    x[18,11]  OBJ       12.8
    x[18,11]  demand_11  1
    x[18,11]  c_disjunction_18_diajunct_1  16
    x[18,11]  c_disjunction_18_disjunct_2  1
    x[9,11]   OBJ       17.8
    x[9,11]   demand_11  1
    x[9,11]   c_disjunction_9_diajunct_1  16
    x[9,11]   c_disjunction_9_disjunct_2  1
    x[12,12]  demand_12  1
    x[12,12]  c_disjunction_12_diajunct_1  16
    x[12,12]  c_disjunction_12_disjunct_2  1
    x[5,12]   OBJ       18.9
    x[5,12]   demand_12  1
    x[5,12]   c_disjunction_5_diajunct_1  16
    x[5,12]   c_disjunction_5_disjunct_2  1
    x[4,12]   OBJ       19.5
    x[4,12]   demand_12  1
    x[4,12]   c_disjunction_4_diajunct_1  16
    x[4,12]   c_disjunction_4_disjunct_2  1
    x[13,13]  demand_13  1
    x[13,13]  c_disjunction_13_diajunct_1  11
    x[13,13]  c_disjunction_13_disjunct_2  1
    x[17,13]  OBJ       9.2
    x[17,13]  demand_13  1
    x[17,13]  c_disjunction_17_diajunct_1  11
    x[17,13]  c_disjunction_17_disjunct_2  1
    x[18,13]  OBJ       16.4
    x[18,13]  demand_13  1
    x[18,13]  c_disjunction_18_diajunct_1  11
    x[18,13]  c_disjunction_18_disjunct_2  1
    x[14,14]  demand_14  1
    x[14,14]  c_disjunction_14_diajunct_1  21
    x[14,14]  c_disjunction_14_disjunct_2  1
    x[28,14]  OBJ       8.6
    x[28,14]  demand_14  1
    x[28,14]  c_disjunction_28_diajunct_1  21
    x[28,14]  c_disjunction_28_disjunct_2  1
    x[6,14]   OBJ       12.9
    x[6,14]   demand_14  1
    x[6,14]   c_disjunction_6_diajunct_1  21
    x[6,14]   c_disjunction_6_disjunct_2  1
    x[15,15]  demand_15  1
    x[15,15]  c_disjunction_15_diajunct_1  28
    x[15,15]  c_disjunction_15_disjunct_2  1
    x[30,15]  OBJ       46.1
    x[30,15]  demand_15  1
    x[30,15]  c_disjunction_30_diajunct_1  28
    x[30,15]  c_disjunction_30_disjunct_2  1
    x[22,15]  OBJ       51.6
    x[22,15]  demand_15  1
    x[22,15]  c_disjunction_22_diajunct_1  28
    x[22,15]  c_disjunction_22_disjunct_2  1
    x[16,16]  demand_16  1
    x[16,16]  c_disjunction_16_diajunct_1  19
    x[16,16]  c_disjunction_16_disjunct_2  1
    x[28,16]  OBJ       10.9
    x[28,16]  demand_16  1
    x[28,16]  c_disjunction_28_diajunct_1  19
    x[28,16]  c_disjunction_28_disjunct_2  1
    x[14,16]  OBJ       11.7
    x[14,16]  demand_16  1
    x[14,16]  c_disjunction_14_diajunct_1  19
    x[14,16]  c_disjunction_14_disjunct_2  1
    x[17,17]  demand_17  1
    x[17,17]  c_disjunction_17_diajunct_1  17
    x[17,17]  c_disjunction_17_disjunct_2  1
    x[13,17]  OBJ       14.3
    x[13,17]  demand_17  1
    x[13,17]  c_disjunction_13_diajunct_1  17
    x[13,17]  c_disjunction_13_disjunct_2  1
    x[20,17]  OBJ       24.1
    x[20,17]  demand_17  1
    x[20,17]  c_disjunction_20_diajunct_1  17
    x[20,17]  c_disjunction_20_disjunct_2  1
    x[18,18]  demand_18  1
    x[18,18]  c_disjunction_18_diajunct_1  21
    x[18,18]  c_disjunction_18_disjunct_2  1
    x[11,18]  OBJ       16.8
    x[11,18]  demand_18  1
    x[11,18]  c_disjunction_11_diajunct_1  21
    x[11,18]  c_disjunction_11_disjunct_2  1
    x[7,18]   OBJ       26.3
    x[7,18]   demand_18  1
    x[7,18]   c_disjunction_7_diajunct_1  21
    x[7,18]   c_disjunction_7_disjunct_2  1
    x[19,19]  demand_19  1
    x[19,19]  c_disjunction_19_diajunct_1  7
    x[19,19]  c_disjunction_19_disjunct_2  1
    x[21,19]  OBJ       6.6
    x[21,19]  demand_19  1
    x[21,19]  c_disjunction_21_diajunct_1  7
    x[21,19]  c_disjunction_21_disjunct_2  1
    x[2,19]   OBJ       7.6
    x[2,19]   demand_19  1
    x[2,19]   c_disjunction_2_diajunct_1  7
    x[2,19]   c_disjunction_2_disjunct_2  1
    x[20,20]  demand_20  1
    x[20,20]  c_disjunction_20_diajunct_1  23
    x[20,20]  c_disjunction_20_disjunct_2  1
    x[17,20]  OBJ       32.6
    x[17,20]  demand_20  1
    x[17,20]  c_disjunction_17_diajunct_1  23
    x[17,20]  c_disjunction_17_disjunct_2  1
    x[27,20]  OBJ       49.4
    x[27,20]  demand_20  1
    x[27,20]  c_disjunction_27_diajunct_1  23
    x[27,20]  c_disjunction_27_disjunct_2  1
    x[21,21]  demand_21  1
    x[21,21]  c_disjunction_21_diajunct_1  28
    x[21,21]  c_disjunction_21_disjunct_2  1
    x[19,21]  OBJ       26.6
    x[19,21]  demand_21  1
    x[19,21]  c_disjunction_19_diajunct_1  28
    x[19,21]  c_disjunction_19_disjunct_2  1
    x[2,21]   OBJ       47.7
    x[2,21]   demand_21  1
    x[2,21]   c_disjunction_2_diajunct_1  28
    x[2,21]   c_disjunction_2_disjunct_2  1
    x[22,22]  demand_22  1
    x[22,22]  c_disjunction_22_diajunct_1  21
    x[22,22]  c_disjunction_22_disjunct_2  1
    x[30,22]  OBJ       4.3
    x[30,22]  demand_22  1
    x[30,22]  c_disjunction_30_diajunct_1  21
    x[30,22]  c_disjunction_30_disjunct_2  1
    x[6,22]   OBJ       22
    x[6,22]   demand_22  1
    x[6,22]   c_disjunction_6_diajunct_1  21
    x[6,22]   c_disjunction_6_disjunct_2  1
    x[23,23]  demand_23  1
    x[23,23]  c_disjunction_23_diajunct_1  15
    x[23,23]  c_disjunction_23_disjunct_2  1
    x[10,23]  OBJ       4.6
    x[10,23]  demand_23  1
    x[10,23]  c_disjunction_10_diajunct_1  15
    x[10,23]  c_disjunction_10_disjunct_2  1
    x[29,23]  OBJ       8.9
    x[29,23]  demand_23  1
    x[29,23]  c_disjunction_29_diajunct_1  15
    x[29,23]  c_disjunction_29_disjunct_2  1
    x[24,24]  demand_24  1
    x[24,24]  c_disjunction_24_diajunct_1  27
    x[24,24]  c_disjunction_24_disjunct_2  1
    x[1,24]   OBJ       10.2
    x[1,24]   demand_24  1
    x[1,24]   c_disjunction_1_diajunct_1  27
    x[1,24]   c_disjunction_1_disjunct_2  1
    x[10,24]  OBJ       25.8
    x[10,24]  demand_24  1
    x[10,24]  c_disjunction_10_diajunct_1  27
    x[10,24]  c_disjunction_10_disjunct_2  1
    x[25,25]  demand_25  1
    x[25,25]  c_disjunction_25_diajunct_1  8
    x[25,25]  c_disjunction_25_disjunct_2  1
    x[3,25]   OBJ       10.8
    x[3,25]   demand_25  1
    x[3,25]   c_disjunction_3_diajunct_1  8
    x[3,25]   c_disjunction_3_disjunct_2  1
    x[16,25]  OBJ       14.5
    x[16,25]  demand_25  1
    x[16,25]  c_disjunction_16_diajunct_1  8
    x[16,25]  c_disjunction_16_disjunct_2  1
    x[26,26]  demand_26  1
    x[26,26]  c_disjunction_26_diajunct_1  28
    x[26,26]  c_disjunction_26_disjunct_2  1
    x[22,26]  OBJ       53.3
    x[22,26]  demand_26  1
    x[22,26]  c_disjunction_22_diajunct_1  28
    x[22,26]  c_disjunction_22_disjunct_2  1
    x[30,26]  OBJ       54.9
    x[30,26]  demand_26  1
    x[30,26]  c_disjunction_30_diajunct_1  28
    x[30,26]  c_disjunction_30_disjunct_2  1
    x[27,27]  demand_27  1
    x[27,27]  c_disjunction_27_diajunct_1  23
    x[27,27]  c_disjunction_27_disjunct_2  1
    x[2,27]   OBJ       25.7
    x[2,27]   demand_27  1
    x[2,27]   c_disjunction_2_diajunct_1  23
    x[2,27]   c_disjunction_2_disjunct_2  1
    x[20,27]  OBJ       49.4
    x[20,27]  demand_27  1
    x[20,27]  c_disjunction_20_diajunct_1  23
    x[20,27]  c_disjunction_20_disjunct_2  1
    x[28,28]  demand_28  1
    x[28,28]  c_disjunction_28_diajunct_1  10
    x[28,28]  c_disjunction_28_disjunct_2  1
    x[6,28]   OBJ       2.1
    x[6,28]   demand_28  1
    x[6,28]   c_disjunction_6_diajunct_1  10
    x[6,28]   c_disjunction_6_disjunct_2  1
    x[14,28]  OBJ       4.1
    x[14,28]  demand_28  1
    x[14,28]  c_disjunction_14_diajunct_1  10
    x[14,28]  c_disjunction_14_disjunct_2  1
    x[29,29]  demand_29  1
    x[29,29]  c_disjunction_29_diajunct_1  6
    x[29,29]  c_disjunction_29_disjunct_2  1
    x[23,29]  OBJ       3.6
    x[23,29]  demand_29  1
    x[23,29]  c_disjunction_23_diajunct_1  6
    x[23,29]  c_disjunction_23_disjunct_2  1
    x[10,29]  OBJ       4.9
    x[10,29]  demand_29  1
    x[10,29]  c_disjunction_10_diajunct_1  6
    x[10,29]  c_disjunction_10_disjunct_2  1
    x[30,30]  demand_30  1
    x[30,30]  c_disjunction_30_diajunct_1  8
    x[30,30]  c_disjunction_30_disjunct_2  1
    x[22,30]  OBJ       1.6
    x[22,30]  demand_30  1
    x[22,30]  c_disjunction_22_diajunct_1  8
    x[22,30]  c_disjunction_22_disjunct_2  1
    x[6,30]   OBJ       9.6
    x[6,30]   demand_30  1
    x[6,30]   c_disjunction_6_diajunct_1  8
    x[6,30]   c_disjunction_6_disjunct_2  1
    MARKER    'MARKER'                 'INTEND'
RHS
    RHS1      demand_1  1
    RHS1      demand_2  1
    RHS1      demand_3  1
    RHS1      demand_4  1
    RHS1      demand_5  1
    RHS1      demand_6  1
    RHS1      demand_7  1
    RHS1      demand_8  1
    RHS1      demand_9  1
    RHS1      demand_10  1
    RHS1      demand_11  1
    RHS1      demand_12  1
    RHS1      demand_13  1
    RHS1      demand_14  1
    RHS1      demand_15  1
    RHS1      demand_16  1
    RHS1      demand_17  1
    RHS1      demand_18  1
    RHS1      demand_19  1
    RHS1      demand_20  1
    RHS1      demand_21  1
    RHS1      demand_22  1
    RHS1      demand_23  1
    RHS1      demand_24  1
    RHS1      demand_25  1
    RHS1      demand_26  1
    RHS1      demand_27  1
    RHS1      demand_28  1
    RHS1      demand_29  1
    RHS1      demand_30  1
    RHS1      c_disjunction_1_disjunct_2  2
    RHS1      R32       1
    RHS1      c_disjunction_2_disjunct_2  4
    RHS1      R35       1
    RHS1      c_disjunction_3_disjunct_2  2
    RHS1      R38       1
    RHS1      c_disjunction_4_disjunct_2  2
    RHS1      R41       1
    RHS1      c_disjunction_5_disjunct_2  2
    RHS1      R44       1
    RHS1      c_disjunction_6_disjunct_2  6
    RHS1      R47       1
    RHS1      c_disjunction_7_disjunct_2  2
    RHS1      R50       1
    RHS1      c_disjunction_8_disjunct_2  1
    RHS1      R53       1
    RHS1      c_disjunction_9_disjunct_2  2
    RHS1      R56       1
    RHS1      c_disjunction_10_disjunct_2  6
    RHS1      R59       1
    RHS1      c_disjunction_11_disjunct_2  3
    RHS1      R62       1
    RHS1      c_disjunction_12_disjunct_2  3
    RHS1      R65       1
    RHS1      c_disjunction_13_disjunct_2  3
    RHS1      R68       1
    RHS1      c_disjunction_14_disjunct_2  5
    RHS1      R71       1
    RHS1      c_disjunction_15_disjunct_2  2
    RHS1      R74       1
    RHS1      c_disjunction_16_disjunct_2  2
    RHS1      R77       1
    RHS1      c_disjunction_17_disjunct_2  3
    RHS1      R80       1
    RHS1      c_disjunction_18_disjunct_2  4
    RHS1      R83       1
    RHS1      c_disjunction_19_disjunct_2  4
    RHS1      R86       1
    RHS1      c_disjunction_20_disjunct_2  3
    RHS1      R89       1
    RHS1      c_disjunction_21_disjunct_2  2
    RHS1      R92       1
    RHS1      c_disjunction_22_disjunct_2  4
    RHS1      R95       1
    RHS1      c_disjunction_23_disjunct_2  3
    RHS1      R98       1
    RHS1      c_disjunction_24_disjunct_2  2
    RHS1      R101      1
    RHS1      c_disjunction_25_disjunct_2  2
    RHS1      R104      1
    RHS1      c_disjunction_26_disjunct_2  2
    RHS1      R107      1
    RHS1      c_disjunction_27_disjunct_2  3
    RHS1      R110      1
    RHS1      c_disjunction_28_disjunct_2  4
    RHS1      R113      1
    RHS1      c_disjunction_29_disjunct_2  3
    RHS1      R116      1
    RHS1      c_disjunction_30_disjunct_2  4
    RHS1      R119      1
BOUNDS
 BV BND1      ind_disjunction_1_disjunct_1
 BV BND1      ind_disjunction_2_disjunct_1
 BV BND1      ind_disjunction_3_disjunct_1
 BV BND1      ind_disjunction_4_disjunct_1
 BV BND1      ind_disjunction_5_disjunct_1
 BV BND1      ind_disjunction_6_disjunct_1
 BV BND1      ind_disjunction_7_disjunct_1
 BV BND1      ind_disjunction_8_disjunct_1
 BV BND1      ind_disjunction_9_disjunct_1
 BV BND1      ind_disjunction_10_disjunct_1
 BV BND1      ind_disjunction_11_disjunct_1
 BV BND1      ind_disjunction_12_disjunct_1
 BV BND1      ind_disjunction_13_disjunct_1
 BV BND1      ind_disjunction_14_disjunct_1
 BV BND1      ind_disjunction_15_disjunct_1
 BV BND1      ind_disjunction_16_disjunct_1
 BV BND1      ind_disjunction_17_disjunct_1
 BV BND1      ind_disjunction_18_disjunct_1
 BV BND1      ind_disjunction_19_disjunct_1
 BV BND1      ind_disjunction_20_disjunct_1
 BV BND1      ind_disjunction_21_disjunct_1
 BV BND1      ind_disjunction_22_disjunct_1
 BV BND1      ind_disjunction_23_disjunct_1
 BV BND1      ind_disjunction_24_disjunct_1
 BV BND1      ind_disjunction_25_disjunct_1
 BV BND1      ind_disjunction_26_disjunct_1
 BV BND1      ind_disjunction_27_disjunct_1
 BV BND1      ind_disjunction_28_disjunct_1
 BV BND1      ind_disjunction_29_disjunct_1
 BV BND1      ind_disjunction_30_disjunct_1
 BV BND1      ind_disjunction_1_disjunct_2
 BV BND1      ind_disjunction_2_disjunct_2
 BV BND1      ind_disjunction_3_disjunct_2
 BV BND1      ind_disjunction_4_disjunct_2
 BV BND1      ind_disjunction_5_disjunct_2
 BV BND1      ind_disjunction_6_disjunct_2
 BV BND1      ind_disjunction_7_disjunct_2
 BV BND1      ind_disjunction_8_disjunct_2
 BV BND1      ind_disjunction_9_disjunct_2
 BV BND1      ind_disjunction_10_disjunct_2
 BV BND1      ind_disjunction_11_disjunct_2
 BV BND1      ind_disjunction_12_disjunct_2
 BV BND1      ind_disjunction_13_disjunct_2
 BV BND1      ind_disjunction_14_disjunct_2
 BV BND1      ind_disjunction_15_disjunct_2
 BV BND1      ind_disjunction_16_disjunct_2
 BV BND1      ind_disjunction_17_disjunct_2
 BV BND1      ind_disjunction_18_disjunct_2
 BV BND1      ind_disjunction_19_disjunct_2
 BV BND1      ind_disjunction_20_disjunct_2
 BV BND1      ind_disjunction_21_disjunct_2
 BV BND1      ind_disjunction_22_disjunct_2
 BV BND1      ind_disjunction_23_disjunct_2
 BV BND1      ind_disjunction_24_disjunct_2
 BV BND1      ind_disjunction_25_disjunct_2
 BV BND1      ind_disjunction_26_disjunct_2
 BV BND1      ind_disjunction_27_disjunct_2
 BV BND1      ind_disjunction_28_disjunct_2
 BV BND1      ind_disjunction_29_disjunct_2
 BV BND1      ind_disjunction_30_disjunct_2
 BV BND1      x[1,1]  
 BV BND1      x[24,1] 
 BV BND1      x[10,1] 
 BV BND1      x[2,2]  
 BV BND1      x[19,2] 
 BV BND1      x[27,2] 
 BV BND1      x[3,3]  
 BV BND1      x[25,3] 
 BV BND1      x[15,3] 
 BV BND1      x[4,4]  
 BV BND1      x[12,4] 
 BV BND1      x[6,4]  
 BV BND1      x[5,5]  
 BV BND1      x[12,5] 
 BV BND1      x[14,5] 
 BV BND1      x[6,6]  
 BV BND1      x[28,6] 
 BV BND1      x[14,6] 
 BV BND1      x[7,7]  
 BV BND1      x[18,7] 
 BV BND1      x[13,7] 
 BV BND1      x[8,8]  
 BV BND1      x[19,8] 
 BV BND1      x[26,8] 
 BV BND1      x[9,9]  
 BV BND1      x[11,9] 
 BV BND1      x[10,9] 
 BV BND1      x[10,10]
 BV BND1      x[23,10]
 BV BND1      x[29,10]
 BV BND1      x[11,11]
 BV BND1      x[18,11]
 BV BND1      x[9,11] 
 BV BND1      x[12,12]
 BV BND1      x[5,12] 
 BV BND1      x[4,12] 
 BV BND1      x[13,13]
 BV BND1      x[17,13]
 BV BND1      x[18,13]
 BV BND1      x[14,14]
 BV BND1      x[28,14]
 BV BND1      x[6,14] 
 BV BND1      x[15,15]
 BV BND1      x[30,15]
 BV BND1      x[22,15]
 BV BND1      x[16,16]
 BV BND1      x[28,16]
 BV BND1      x[14,16]
 BV BND1      x[17,17]
 BV BND1      x[13,17]
 BV BND1      x[20,17]
 BV BND1      x[18,18]
 BV BND1      x[11,18]
 BV BND1      x[7,18] 
 BV BND1      x[19,19]
 BV BND1      x[21,19]
 BV BND1      x[2,19] 
 BV BND1      x[20,20]
 BV BND1      x[17,20]
 BV BND1      x[27,20]
 BV BND1      x[21,21]
 BV BND1      x[19,21]
 BV BND1      x[2,21] 
 BV BND1      x[22,22]
 BV BND1      x[30,22]
 BV BND1      x[6,22] 
 BV BND1      x[23,23]
 BV BND1      x[10,23]
 BV BND1      x[29,23]
 BV BND1      x[24,24]
 BV BND1      x[1,24] 
 BV BND1      x[10,24]
 BV BND1      x[25,25]
 BV BND1      x[3,25] 
 BV BND1      x[16,25]
 BV BND1      x[26,26]
 BV BND1      x[22,26]
 BV BND1      x[30,26]
 BV BND1      x[27,27]
 BV BND1      x[2,27] 
 BV BND1      x[20,27]
 BV BND1      x[28,28]
 BV BND1      x[6,28] 
 BV BND1      x[14,28]
 BV BND1      x[29,29]
 BV BND1      x[23,29]
 BV BND1      x[10,29]
 BV BND1      x[30,30]
 BV BND1      x[22,30]
 BV BND1      x[6,30] 
ENDATA
